<?xml version="1.0" encoding="UTF-8"?>
<instance xmlns:xsi="http://www.w3.org/2001/XMLSchema-instance" xsi:noNamespaceSchemaLocation="src/frodo2/algorithms/XCSPschemaJaCoP.xsd">
  <presentation name="graphColoring_1548903385442" maxConstraintArity="2" maximize="false" format="XCSP 2.1_FRODO">
    <stats name="number of nodes">6</stats>
    <stats name="target density">0.4</stats>
    <stats name="true average density">0.4</stats>
    <stats name="target unary tightness">0.0</stats>
    <stats name="true average unary tightness">0.0</stats>
    <stats name="number of colors">3</stats>
    <stats name="number of uncontrollable nodes">0</stats>
    <stats name="number of disconnected components">2</stats>
    <stats name="max degree">3</stats>
  </presentation>
  <agents nbAgents="6">
    <agent name="a0" />
    <agent name="a1" />
    <agent name="a2" />
    <agent name="a3" />
    <agent name="a4" />
    <agent name="a5" />
  </agents>
  <domains nbDomains="1">
    <domain name="colors" nbValues="3">1..3</domain>
  </domains>
  <variables nbVariables="6">
    <variable name="n0" domain="colors" agent="a0" />
    <variable name="n1" domain="colors" agent="a1" />
    <variable name="n2" domain="colors" agent="a2" />
    <variable name="n3" domain="colors" agent="a3" />
    <variable name="n4" domain="colors" agent="a4" />
    <variable name="n5" domain="colors" agent="a5" />
  </variables>
  <predicates nbPredicates="1">
    <predicate name="neq">
      <parameters>int X int Y</parameters>
      <expression>
        <functional>ne(X, Y)</functional>
      </expression>
    </predicate>
  </predicates>
  <constraints nbConstraints="6">
    <constraint name="n3_neq_n5" scope="n3 n5" arity="2" reference="neq">
      <parameters>n3 n5</parameters>
    </constraint>
    <constraint name="n2_neq_n3" scope="n2 n3" arity="2" reference="neq">
      <parameters>n2 n3</parameters>
    </constraint>
    <constraint name="n0_neq_n3" scope="n0 n3" arity="2" reference="neq">
      <parameters>n0 n3</parameters>
    </constraint>
    <constraint name="n2_neq_n5" scope="n2 n5" arity="2" reference="neq">
      <parameters>n2 n5</parameters>
    </constraint>
    <constraint name="n0_neq_n1" scope="n0 n1" arity="2" reference="neq">
      <parameters>n0 n1</parameters>
    </constraint>
    <constraint name="n1_neq_n2" scope="n1 n2" arity="2" reference="neq">
      <parameters>n1 n2</parameters>
    </constraint>
  </constraints>
</instance>
